NAME : single.210509.tour
COMMENT : Length = 210509
COMMENT : Found by LKH [Keld Helsgaun] Wed Aug 27 10:30:20 2025
TYPE : TOUR
DIMENSION : 18
TOUR_SECTION
1
12
9
6
3
15
14
2
10
7
5
13
17
18
11
8
4
16
-1
EOF
